presolving:
(round 1, fast)       102 del vars, 0 del conss, 0 add conss, 0 chg bounds, 0 chg sides, 0 chg coeffs, 0 upgd conss, 0 impls, 202 clqs
(round 2, exhaustive) 102 del vars, 0 del conss, 0 add conss, 0 chg bounds, 0 chg sides, 0 chg coeffs, 202 upgd conss, 0 impls, 202 clqs
   (1.0s) probing: 51/10100 (0.5%) - 0 fixings, 0 aggregations, 0 implications, 0 bound changes
   (1.0s) probing aborted: 50/50 successive totally useless probings
   Deactivated symmetry handling methods, since SCIP was built without symmetry detector (SYM=none).
presolving (3 rounds: 3 fast, 2 medium, 2 exhaustive):
 102 deleted vars, 0 deleted constraints, 0 added constraints, 0 tightened bounds, 0 added holes, 0 changed sides, 0 changed coefficients
 0 implications, 202 cliques
presolved problem has 10200 variables (10100 bin, 0 int, 0 impl, 100 cont) and 10102 constraints
    202 constraints of type <setppc>
   9900 constraints of type <linear>
Presolving Time: 1.00

 time | node  | left  |LP iter|LP it/n|mem/heur|mdpt |vars |cons |rows |cuts |sepa|confs|strbr|  dualbound   | primalbound  |  gap   | compl. 
p 1.0s|     1 |     0 |    63 |     - | vbounds|   0 |  10k|  10k|  10k|   0 |  0 |   7 |   0 | 0.000000e+00 | 2.041713e+03 |    Inf | unknown
  1.0s|     1 |     0 |   400 |     - |   128M |   0 |  10k|  10k|  10k|   0 |  0 |   7 |   0 | 5.820497e+02 | 2.041713e+03 | 250.78%| unknown
  1.0s|     1 |     0 |   507 |     - |   133M |   0 |  10k|  10k|  10k|  84 |  1 |   7 |   0 | 6.032286e+02 | 2.041713e+03 | 238.46%| unknown
  2.0s|     1 |     0 |   585 |     - |   134M |   0 |  10k|  10k|  10k| 132 |  2 |   7 |   0 | 6.117283e+02 | 2.041713e+03 | 233.76%| unknown
  2.0s|     1 |     0 |   629 |     - |   136M |   0 |  10k|  10k|  10k| 158 |  3 |   7 |   0 | 6.289210e+02 | 2.041713e+03 | 224.64%| unknown
  2.0s|     1 |     0 |   663 |     - |   138M |   0 |  10k|  10k|  10k| 171 |  5 |   7 |   0 | 6.291848e+02 | 2.041713e+03 | 224.50%| unknown
  2.0s|     1 |     0 |   673 |     - |   139M |   0 |  10k|  10k|  10k| 178 |  6 |   7 |   0 | 6.291848e+02 | 2.041713e+03 | 224.50%| unknown
  2.0s|     1 |     0 |   677 |     - |   140M |   0 |  10k|  10k|  10k| 182 |  7 |   7 |   0 | 6.291848e+02 | 2.041713e+03 | 224.50%| unknown
  3.0s|     1 |     0 |   695 |     - |   142M |   0 |  10k|  10k|  10k| 192 |  8 |   7 |   0 | 6.295374e+02 | 2.041713e+03 | 224.32%| unknown
  3.0s|     1 |     0 |   711 |     - |   143M |   0 |  10k|  10k|  10k| 201 |  9 |   7 |   0 | 6.298977e+02 | 2.041713e+03 | 224.13%| unknown
  3.0s|     1 |     0 |   719 |     - |   146M |   0 |  10k|  10k|  10k| 204 | 10 |   7 |   0 | 6.308723e+02 | 2.041713e+03 | 223.63%| unknown
  3.0s|     1 |     0 |   756 |     - |   147M |   0 |  10k|  10k|  10k| 215 | 11 |   7 |   0 | 6.314788e+02 | 2.041713e+03 | 223.32%| unknown
  3.0s|     1 |     0 |   798 |     - |   148M |   0 |  10k|  10k|  10k| 225 | 12 |   7 |   0 | 6.324311e+02 | 2.041713e+03 | 222.84%| unknown
  3.0s|     1 |     0 |   815 |     - |   149M |   0 |  10k|  10k|  10k| 232 | 13 |   7 |   0 | 6.330489e+02 | 2.041713e+03 | 222.52%| unknown
  3.0s|     1 |     0 |   833 |     - |   150M |   0 |  10k|  10k|  10k| 237 | 14 |   7 |   0 | 6.331110e+02 | 2.041713e+03 | 222.49%| unknown
 time | node  | left  |LP iter|LP it/n|mem/heur|mdpt |vars |cons |rows |cuts |sepa|confs|strbr|  dualbound   | primalbound  |  gap   | compl. 
  4.0s|     1 |     0 |   846 |     - |   151M |   0 |  10k|  10k|  10k| 241 | 15 |   7 |   0 | 6.331274e+02 | 2.041713e+03 | 222.48%| unknown
  4.0s|     1 |     0 |   868 |     - |   152M |   0 |  10k|  10k|  10k| 243 | 16 |   7 |   0 | 6.331927e+02 | 2.041713e+03 | 222.45%| unknown
  4.0s|     1 |     0 |   892 |     - |   153M |   0 |  10k|  10k|  10k| 246 | 17 |   7 |   0 | 6.333038e+02 | 2.041713e+03 | 222.39%| unknown
  4.0s|     1 |     0 |   904 |     - |   153M |   0 |  10k|  10k|  10k| 254 | 18 |   7 |   0 | 6.333045e+02 | 2.041713e+03 | 222.39%| unknown
  4.0s|     1 |     0 |   925 |     - |   154M |   0 |  10k|  10k|  10k| 256 | 19 |   7 |   0 | 6.333929e+02 | 2.041713e+03 | 222.35%| unknown
  4.0s|     1 |     0 |   949 |     - |   155M |   0 |  10k|  10k|  10k| 267 | 20 |   7 |   0 | 6.337012e+02 | 2.041713e+03 | 222.19%| unknown
  5.0s|     1 |     0 |   994 |     - |   156M |   0 |  10k|  10k|  10k| 284 | 21 |   7 |   0 | 6.341856e+02 | 2.041713e+03 | 221.94%| unknown
  5.0s|     1 |     0 |  1005 |     - |   156M |   0 |  10k|  10k|  10k| 292 | 22 |   7 |   0 | 6.341856e+02 | 2.041713e+03 | 221.94%| unknown
  5.0s|     1 |     0 |  1021 |     - |   156M |   0 |  10k|  10k|  10k| 298 | 23 |   7 |   0 | 6.342075e+02 | 2.041713e+03 | 221.93%| unknown
  5.0s|     1 |     0 |  1025 |     - |   156M |   0 |  10k|  10k|  10k| 302 | 24 |   7 |   0 | 6.342075e+02 | 2.041713e+03 | 221.93%| unknown
  5.0s|     1 |     0 |  1064 |     - |   156M |   0 |  10k|  10k|  10k| 308 | 26 |   7 |   0 | 6.345938e+02 | 2.041713e+03 | 221.74%| unknown
  6.0s|     1 |     0 |  1069 |     - |   156M |   0 |  10k|  10k|  10k| 312 | 27 |   7 |   0 | 6.345938e+02 | 2.041713e+03 | 221.74%| unknown
 29.0s|     1 |     2 |  9990 |     - |   159M |   0 |  10k|  10k|  10k| 312 | 29 |  12 |  52 | 6.348157e+02 | 2.041713e+03 | 221.62%| unknown
d 147s|    31 |    32 | 15905 | 496.6 |adaptive|  17 |  10k|  10k|  10k|   0 |  1 |  13 | 587 | 6.348157e+02 | 9.846620e+02 |  55.11%| unknown
  298s|   100 |   101 | 21255 | 204.5 |   194M |  23 |  10k|  10k|  10k| 757 |  1 |  44 |1208 | 6.348157e+02 | 9.846620e+02 |  55.11%| unknown
 time | node  | left  |LP iter|LP it/n|mem/heur|mdpt |vars |cons |rows |cuts |sepa|confs|strbr|  dualbound   | primalbound  |  gap   | compl. 
o 305s|   107 |   108 | 24756 | 224.1 |rootsold|  23 |  10k|  10k|  10k| 761 |  3 |  46 |1232 | 6.348157e+02 | 8.143569e+02 |  28.28%| unknown
  365s|   200 |   201 | 31629 | 153.9 |   206M |  27 |  10k|  10k|  10k| 951 |  2 |  66 |1458 | 6.349379e+02 | 8.143569e+02 |  28.26%| unknown
  403s|   300 |   301 | 37565 | 122.3 |   212M |  31 |  10k|  10k|  10k|1060 |  1 |  82 |1582 | 6.349379e+02 | 8.143569e+02 |  28.26%| unknown
L 406s|   307 |   308 | 37896 | 120.6 |    rins|  31 |  10k|  10k|  10k|1069 |  1 |  82 |1589 | 6.349379e+02 | 8.031860e+02 |  26.50%| unknown
  437s|   400 |   399 | 45245 | 110.9 |   214M |  40 |  10k|  10k|  10k|1115 |  2 | 100 |1686 | 6.349379e+02 | 8.031860e+02 |  26.50%| unknown
  464s|   500 |   497 | 51579 | 101.3 |   224M |  47 |  10k|  10k|  10k|1278 |  1 | 139 |1759 | 6.349379e+02 | 8.031860e+02 |  26.50%| unknown
L 467s|   507 |   504 | 51816 | 100.4 |    rins|  47 |  10k|  10k|  10k|1283 |  1 | 139 |1762 | 6.349379e+02 | 7.856343e+02 |  23.73%| unknown
  486s|   600 |   595 | 55729 |  91.4 |   228M |  47 |  10k|  10k|  10k|1365 |  1 | 193 |1809 | 6.349379e+02 | 7.856343e+02 |  23.73%| unknown
  506s|   700 |   695 | 60824 |  85.6 |   230M |  47 |  10k|  10k|  10k|1483 |  3 | 220 |1855 | 6.349379e+02 | 7.856343e+02 |  23.73%| unknown
L 511s|   716 |   711 | 61689 |  84.9 |    rins|  47 |  10k|  10k|  10k|1495 |  1 | 234 |1858 | 6.349379e+02 | 7.829592e+02 |  23.31%| unknown
  526s|   800 |   795 | 66288 |  81.7 |   231M |  47 |  10k|  10k|  10k|1586 |  1 | 255 |1889 | 6.349379e+02 | 7.829592e+02 |  23.31%| unknown
  543s|   900 |   893 | 73320 |  80.4 |   232M |  47 |  10k|  10k|  10k|1630 |  1 | 258 |1928 | 6.349379e+02 | 7.829592e+02 |  23.31%| unknown
  566s|  1000 |   991 | 79813 |  78.9 |   239M |  47 |  10k|  10k|  10k|1747 |  1 | 298 |1973 | 6.349379e+02 | 7.829592e+02 |  23.31%| unknown
Restart triggered after 50 consecutive estimations that the remaining tree will be large
(run 1, node 1049) performing user restart

(restart) converted 148 cuts from the global cut pool into linear constraints

presolving:
(round 1, fast)       0 del vars, 34 del conss, 0 add conss, 0 chg bounds, 0 chg sides, 0 chg coeffs, 0 upgd conss, 0 impls, 254 clqs
(round 2, exhaustive) 0 del vars, 34 del conss, 0 add conss, 0 chg bounds, 0 chg sides, 0 chg coeffs, 101 upgd conss, 0 impls, 254 clqs
(round 3, exhaustive) 0 del vars, 106 del conss, 0 add conss, 0 chg bounds, 0 chg sides, 52 chg coeffs, 101 upgd conss, 46 impls, 254 clqs
presolving (4 rounds: 4 fast, 3 medium, 3 exhaustive):
 0 deleted vars, 106 deleted constraints, 0 added constraints, 0 tightened bounds, 0 added holes, 0 changed sides, 110 changed coefficients
 46 implications, 254 cliques
presolved problem has 10200 variables (10100 bin, 0 int, 0 impl, 100 cont) and 10482 constraints
     46 constraints of type <varbound>
     22 constraints of type <knapsack>
    254 constraints of type <setppc>
   9947 constraints of type <linear>
    207 constraints of type <logicor>
      6 constraints of type <bounddisjunction>
Presolving Time: 1.00
transformed 9/9 original solutions to the transformed problem space

 time | node  | left  |LP iter|LP it/n|mem/heur|mdpt |vars |cons |rows |cuts |sepa|confs|strbr|  dualbound   | primalbound  |  gap   | compl. 
  575s|     1 |     0 | 83130 |     - |   247M |   0 |  10k|  10k|  10k|   0 |  0 | 339 |1990 | 6.349379e+02 | 7.829592e+02 |  23.31%| unknown
  576s|     1 |     0 | 83161 |     - |   247M |   0 |  10k|  10k|  10k|  30 |  1 | 349 |1990 | 6.349379e+02 | 7.829592e+02 |  23.31%| unknown
  576s|     1 |     0 | 83173 |     - |   247M |   0 |  10k|  10k|  10k|  37 |  2 | 349 |1990 | 6.349379e+02 | 7.829592e+02 |  23.31%| unknown
  576s|     1 |     0 | 83176 |     - |   247M |   0 |  10k|  10k|  10k|  40 |  3 | 349 |1990 | 6.349379e+02 | 7.829592e+02 |  23.31%| unknown
  576s|     1 |     0 | 83178 |     - |   247M |   0 |  10k|  10k|  10k|  42 |  4 | 349 |1990 | 6.349379e+02 | 7.829592e+02 |  23.31%| unknown
  587s|     1 |     2 | 87252 |     - |   247M |   0 |  10k|  10k|  10k|  42 |  6 | 356 |2018 | 6.352442e+02 | 7.829592e+02 |  23.25%| unknown

SCIP Status        : solving was interrupted [time limit reached]
Solving Time (sec) : 600.00
Solving Nodes      : 4 (total of 1053 nodes in 2 runs)
Primal Bound       : +7.82959175153619e+02 (9 solutions)
Dual Bound         : +6.35244207346283e+02
Gap                : 23.25 %
Trying to solve problem with MTZ Solver Method...
Starting Solver, time limit setted to 10 minutes
Route:  [[0, 49], [1, 25], [2, 78], [3, 24], [4, 83], [5, 93], [6, 87], [7, 81], [8, 62], [9, 61], [10, 63], [11, 79], [12, 52], [13, 43], [14, 56], [15, 90], [16, 44], [17, 82], [18, 10], [19, 29], [20, 71], [21, 40], [22, 66], [23, 28], [24, 54], [25, 57], [26, 100], [27, 59], [28, 77], [29, 69], [30, 51], [31, 9], [32, 80], [33, 34], [34, 70], [35, 46], [36, 97], [37, 13], [38, 3], [39, 72], [40, 73], [41, 42], [42, 14], [43, 85], [44, 45], [45, 7], [46, 47], [47, 6], [48, 35], [49, 75], [50, 8], [51, 88], [52, 39], [53, 23], [54, 53], [55, 22], [56, 1], [57, 12], [58, 95], [59, 4], [60, 37], [61, 18], [62, 89], [63, 48], [64, 65], [65, 19], [66, 38], [67, 76], [68, 0], [69, 68], [70, 64], [71, 74], [72, 20], [73, 55], [74, 21], [75, 11], [76, 2], [77, 33], [78, 32], [79, 67], [80, 50], [81, 17], [82, 15], [83, 16], [84, 60], [85, 30], [86, 41], [87, 26], [88, 5], [89, 31], [90, 99], [91, 58], [92, 84], [93, 94], [94, 96], [95, 98], [96, 86], [97, 91], [98, 92], [99, 36], [100, 27]]
An Otimal Solution was found, yay!
Objective value: 783.0
Problem solved in 87426 iterations
Problem solved in 1053 nodes
Final Route Configuration succesfully created at:
data/routes/eil101.csv
